Minimize
  obj: x0 + x1 + x2 + x3 + x4

Subject To
  c0: x0 + x3 + x4 = 49
  c1: x0 + x2 + x3 = 55
  c2: x2 + x3 + x4 = 46
  c3: x0 + x1 + x2 = 54
  c4: x0 + x1 + x2 = 54

Bounds
  x0 >= 0
  x1 >= 0
  x2 >= 0
  x3 >= 0
  x4 >= 0

Generals
  x0 x1 x2 x3 x4

End
